p cnf 125 97
-1 3 4 9 15 25 47 51 77 82 -2 103 -104 -105 -106 -108 -109 -110 -111 -112 -113 -114 -115 -116 -117 -118 -119 -120 -121 -122 -123 -124 -125 0 
-3 1 4 9 15 25 47 51 77 82 104 -103 -105 -106 -108 -109 -110 -111 -112 -113 -114 -115 -116 -117 -118 -119 -120 -121 -122 -123 -124 -125 0 
-4 1 3 9 15 25 47 51 77 82 -5 7 11 14 27 40 48 56 57 65 66 76 80 83 89 98 105 -103 -104 -106 -108 -109 -110 -111 -112 -113 -114 -115 -116 -117 -118 -119 -120 -121 -122 -123 -124 -125 0 
-6 104 -103 -105 -106 -108 -109 -110 -111 -112 -113 -114 -115 -116 -117 -118 -119 -120 -121 -122 -123 -124 -125 0 
-7 5 11 14 27 40 48 56 57 65 66 76 80 83 89 98 106 -103 -104 -105 -108 -109 -110 -111 -112 -113 -114 -115 -116 -117 -118 -119 -120 -121 -122 -123 -124 -125 0 
-8 -9 1 3 4 15 25 47 51 77 82 104 -103 -105 -106 -108 -109 -110 -111 -112 -113 -114 -115 -116 -117 -118 -119 -120 -121 -122 -123 -124 -125 0 
-10 42 107 0 
-11 5 7 14 27 40 48 56 57 65 66 76 80 83 89 98 108 -103 -104 -105 -106 -109 -110 -111 -112 -113 -114 -115 -116 -117 -118 -119 -120 -121 -122 -123 -124 -125 0 
-12 106 -103 -104 -105 -108 -109 -110 -111 -112 -113 -114 -115 -116 -117 -118 -119 -120 -121 -122 -123 -124 -125 0 
-13 109 -103 -104 -105 -106 -108 -110 -111 -112 -113 -114 -115 -116 -117 -118 -119 -120 -121 -122 -123 -124 -125 0 
-14 5 7 11 27 40 48 56 57 65 66 76 80 83 89 98 -15 1 3 4 9 25 47 51 77 82 110 -103 -104 -105 -106 -108 -109 -111 -112 -113 -114 -115 -116 -117 -118 -119 -120 -121 -122 -123 -124 -125 0 
-16 111 -103 -104 -105 -106 -108 -109 -110 -112 -113 -114 -115 -116 -117 -118 -119 -120 -121 -122 -123 -124 -125 0 
-17 -18 112 -103 -104 -105 -106 -108 -109 -110 -111 -113 -114 -115 -116 -117 -118 -119 -120 -121 -122 -123 -124 -125 0 
-19 22 26 30 31 39 41 45 54 60 67 71 72 73 74 78 79 95 -16 113 -103 -104 -105 -106 -108 -109 -110 -111 -112 -114 -115 -116 -117 -118 -119 -120 -121 -122 -123 -124 -125 0 
-20 108 -103 -104 -105 -106 -109 -110 -111 -112 -113 -114 -115 -116 -117 -118 -119 -120 -121 -122 -123 -124 -125 0 
-21 114 -103 -104 -105 -106 -108 -109 -110 -111 -112 -113 -115 -116 -117 -118 -119 -120 -121 -122 -123 -124 -125 0 
-22 19 26 30 31 39 41 45 54 60 67 71 72 73 74 78 79 95 -23 110 -103 -104 -105 -106 -108 -109 -111 -112 -113 -114 -115 -116 -117 -118 -119 -120 -121 -122 -123 -124 -125 0 
-24 43 55 58 68 75 101 -25 1 3 4 9 15 47 51 77 82 105 -103 -104 -106 -108 -109 -110 -111 -112 -113 -114 -115 -116 -117 -118 -119 -120 -121 -122 -123 -124 -125 0 
-4 1 3 9 15 25 47 51 77 82 -14 5 7 11 27 40 48 56 57 65 66 76 80 83 89 98 115 -103 -104 -105 -106 -108 -109 -110 -111 -112 -113 -114 -116 -117 -118 -119 -120 -121 -122 -123 -124 -125 0 
-4 1 3 9 15 25 47 51 77 82 -26 19 22 30 31 39 41 45 54 60 67 71 72 73 74 78 79 95 105 -103 -104 -106 -108 -109 -110 -111 -112 -113 -114 -115 -116 -117 -118 -119 -120 -121 -122 -123 -124 -125 0 
-27 5 7 11 14 40 48 56 57 65 66 76 80 83 89 98 106 -103 -104 -105 -108 -109 -110 -111 -112 -113 -114 -115 -116 -117 -118 -119 -120 -121 -122 -123 -124 -125 0 
-28 116 -103 -104 -105 -106 -108 -109 -110 -111 -112 -113 -114 -115 -117 -118 -119 -120 -121 -122 -123 -124 -125 0 
-28 117 -103 -104 -105 -106 -108 -109 -110 -111 -112 -113 -114 -115 -116 -118 -119 -120 -121 -122 -123 -124 -125 0 
-29 -30 19 22 26 31 39 41 45 54 60 67 71 72 73 74 78 79 95 106 -103 -104 -105 -108 -109 -110 -111 -112 -113 -114 -115 -116 -117 -118 -119 -120 -121 -122 -123 -124 -125 0 
-31 19 22 26 30 39 41 45 54 60 67 71 72 73 74 78 79 95 108 -103 -104 -105 -106 -109 -110 -111 -112 -113 -114 -115 -116 -117 -118 -119 -120 -121 -122 -123 -124 -125 0 
-32 -33 118 -103 -104 -105 -106 -108 -109 -110 -111 -112 -113 -114 -115 -116 -117 -119 -120 -121 -122 -123 -124 -125 0 
-34 49 106 -103 -104 -105 -108 -109 -110 -111 -112 -113 -114 -115 -116 -117 -118 -119 -120 -121 -122 -123 -124 -125 0 
-30 19 22 26 31 39 41 45 54 60 67 71 72 73 74 78 79 95 -35 102 106 -103 -104 -105 -108 -109 -110 -111 -112 -113 -114 -115 -116 -117 -118 -119 -120 -121 -122 -123 -124 -125 0 
-36 91 112 -103 -104 -105 -106 -108 -109 -110 -111 -113 -114 -115 -116 -117 -118 -119 -120 -121 -122 -123 -124 -125 0 
-37 50 112 -103 -104 -105 -106 -108 -109 -110 -111 -113 -114 -115 -116 -117 -118 -119 -120 -121 -122 -123 -124 -125 0 
-38 106 -103 -104 -105 -108 -109 -110 -111 -112 -113 -114 -115 -116 -117 -118 -119 -120 -121 -122 -123 -124 -125 0 
-39 19 22 26 30 31 41 45 54 60 67 71 72 73 74 78 79 95 119 -103 -104 -105 -106 -108 -109 -110 -111 -112 -113 -114 -115 -116 -117 -118 -120 -121 -122 -123 -124 -125 0 
-30 19 22 26 31 39 41 45 54 60 67 71 72 73 74 78 79 95 106 -103 -104 -105 -108 -109 -110 -111 -112 -113 -114 -115 -116 -117 -118 -119 -120 -121 -122 -123 -124 -125 0 
-4 1 3 9 15 25 47 51 77 82 -27 5 7 11 14 40 48 56 57 65 66 76 80 83 89 98 106 -103 -104 -105 -108 -109 -110 -111 -112 -113 -114 -115 -116 -117 -118 -119 -120 -121 -122 -123 -124 -125 0 
-40 5 7 11 14 27 48 56 57 65 66 76 80 83 89 98 120 -103 -104 -105 -106 -108 -109 -110 -111 -112 -113 -114 -115 -116 -117 -118 -119 -121 -122 -123 -124 -125 0 
-41 19 22 26 30 31 39 45 54 60 67 71 72 73 74 78 79 95 112 -103 -104 -105 -106 -108 -109 -110 -111 -113 -114 -115 -116 -117 -118 -119 -120 -121 -122 -123 -124 -125 0 
-42 10 -43 24 55 58 68 75 101 120 -103 -104 -105 -106 -108 -109 -110 -111 -112 -113 -114 -115 -116 -117 -118 -119 -121 -122 -123 -124 -125 0 
-44 64 115 -103 -104 -105 -106 -108 -109 -110 -111 -112 -113 -114 -116 -117 -118 -119 -120 -121 -122 -123 -124 -125 0 
-45 19 22 26 30 31 39 41 54 60 67 71 72 73 74 78 79 95 111 -103 -104 -105 -106 -108 -109 -110 -112 -113 -114 -115 -116 -117 -118 -119 -120 -121 -122 -123 -124 -125 0 
-46 106 -103 -104 -105 -108 -109 -110 -111 -112 -113 -114 -115 -116 -117 -118 -119 -120 -121 -122 -123 -124 -125 0 
-47 1 3 4 9 15 25 51 77 82 -48 5 7 11 14 27 40 56 57 65 66 76 80 83 89 98 106 -103 -104 -105 -108 -109 -110 -111 -112 -113 -114 -115 -116 -117 -118 -119 -120 -121 -122 -123 -124 -125 0 
-49 34 106 -103 -104 -105 -108 -109 -110 -111 -112 -113 -114 -115 -116 -117 -118 -119 -120 -121 -122 -123 -124 -125 0 
-50 37 121 -103 -104 -105 -106 -108 -109 -110 -111 -112 -113 -114 -115 -116 -117 -118 -119 -120 -122 -123 -124 -125 0 
-51 1 3 4 9 15 25 47 77 82 -52 86 121 -103 -104 -105 -106 -108 -109 -110 -111 -112 -113 -114 -115 -116 -117 -118 -119 -120 -122 -123 -124 -125 0 
-53 122 -103 -104 -105 -106 -108 -109 -110 -111 -112 -113 -114 -115 -116 -117 -118 -119 -120 -121 -123 -124 -125 0 
-29 -27 5 7 11 14 40 48 56 57 65 66 76 80 83 89 98 106 -103 -104 -105 -108 -109 -110 -111 -112 -113 -114 -115 -116 -117 -118 -119 -120 -121 -122 -123 -124 -125 0 
-54 19 22 26 30 31 39 41 45 60 67 71 72 73 74 78 79 95 104 -103 -105 -106 -108 -109 -110 -111 -112 -113 -114 -115 -116 -117 -118 -119 -120 -121 -122 -123 -124 -125 0 
-55 24 43 58 68 75 101 110 -103 -104 -105 -106 -108 -109 -111 -112 -113 -114 -115 -116 -117 -118 -119 -120 -121 -122 -123 -124 -125 0 
-56 5 7 11 14 27 40 48 57 65 66 76 80 83 89 98 110 -103 -104 -105 -106 -108 -109 -111 -112 -113 -114 -115 -116 -117 -118 -119 -120 -121 -122 -123 -124 -125 0 
-57 5 7 11 14 27 40 48 56 65 66 76 80 83 89 98 105 -103 -104 -106 -108 -109 -110 -111 -112 -113 -114 -115 -116 -117 -118 -119 -120 -121 -122 -123 -124 -125 0 
-58 24 43 55 68 75 101 120 -103 -104 -105 -106 -108 -109 -110 -111 -112 -113 -114 -115 -116 -117 -118 -119 -121 -122 -123 -124 -125 0 
-59 -60 19 22 26 30 31 39 41 45 54 67 71 72 73 74 78 79 95 105 -103 -104 -106 -108 -109 -110 -111 -112 -113 -114 -115 -116 -117 -118 -119 -120 -121 -122 -123 -124 -125 0 
-61 -51 1 3 4 9 15 25 47 77 82 109 -103 -104 -105 -106 -108 -110 -111 -112 -113 -114 -115 -116 -117 -118 -119 -120 -121 -122 -123 -124 -125 0 
-62 109 -103 -104 -105 -106 -108 -110 -111 -112 -113 -114 -115 -116 -117 -118 -119 -120 -121 -122 -123 -124 -125 0 
-59 -63 114 -103 -104 -105 -106 -108 -109 -110 -111 -112 -113 -115 -116 -117 -118 -119 -120 -121 -122 -123 -124 -125 0 
-64 44 114 -103 -104 -105 -106 -108 -109 -110 -111 -112 -113 -115 -116 -117 -118 -119 -120 -121 -122 -123 -124 -125 0 
-65 5 7 11 14 27 40 48 56 57 66 76 80 83 89 98 112 -103 -104 -105 -106 -108 -109 -110 -111 -113 -114 -115 -116 -117 -118 -119 -120 -121 -122 -123 -124 -125 0 
-66 5 7 11 14 27 40 48 56 57 65 76 80 83 89 98 112 -103 -104 -105 -106 -108 -109 -110 -111 -113 -114 -115 -116 -117 -118 -119 -120 -121 -122 -123 -124 -125 0 
-67 19 22 26 30 31 39 41 45 54 60 71 72 73 74 78 79 95 112 -103 -104 -105 -106 -108 -109 -110 -111 -113 -114 -115 -116 -117 -118 -119 -120 -121 -122 -123 -124 -125 0 
-68 24 43 55 58 75 101 104 -103 -105 -106 -108 -109 -110 -111 -112 -113 -114 -115 -116 -117 -118 -119 -120 -121 -122 -123 -124 -125 0 
-69 70 123 -103 -104 -105 -106 -108 -109 -110 -111 -112 -113 -114 -115 -116 -117 -118 -119 -120 -121 -122 -124 -125 0 
-70 69 -69 70 124 -103 -104 -105 -106 -108 -109 -110 -111 -112 -113 -114 -115 -116 -117 -118 -119 -120 -121 -122 -123 -125 0 
-71 19 22 26 30 31 39 41 45 54 60 67 72 73 74 78 79 95 -15 1 3 4 9 25 47 51 77 82 110 -103 -104 -105 -106 -108 -109 -111 -112 -113 -114 -115 -116 -117 -118 -119 -120 -121 -122 -123 -124 -125 0 
-4 1 3 9 15 25 47 51 77 82 -68 24 43 55 58 75 101 104 -103 -105 -106 -108 -109 -110 -111 -112 -113 -114 -115 -116 -117 -118 -119 -120 -121 -122 -123 -124 -125 0 
-72 19 22 26 30 31 39 41 45 54 60 67 71 73 74 78 79 95 105 -103 -104 -106 -108 -109 -110 -111 -112 -113 -114 -115 -116 -117 -118 -119 -120 -121 -122 -123 -124 -125 0 
-73 19 22 26 30 31 39 41 45 54 60 67 71 72 74 78 79 95 122 -103 -104 -105 -106 -108 -109 -110 -111 -112 -113 -114 -115 -116 -117 -118 -119 -120 -121 -123 -124 -125 0 
-74 19 22 26 30 31 39 41 45 54 60 67 71 72 73 78 79 95 -75 24 43 55 58 68 101 105 -103 -104 -106 -108 -109 -110 -111 -112 -113 -114 -115 -116 -117 -118 -119 -120 -121 -122 -123 -124 -125 0 
-76 5 7 11 14 27 40 48 56 57 65 66 80 83 89 98 122 -103 -104 -105 -106 -108 -109 -110 -111 -112 -113 -114 -115 -116 -117 -118 -119 -120 -121 -123 -124 -125 0 
-14 5 7 11 27 40 48 56 57 65 66 76 80 83 89 98 -77 1 3 4 9 15 25 47 51 82 111 -103 -104 -105 -106 -108 -109 -110 -112 -113 -114 -115 -116 -117 -118 -119 -120 -121 -122 -123 -124 -125 0 
-78 19 22 26 30 31 39 41 45 54 60 67 71 72 73 74 79 95 112 -103 -104 -105 -106 -108 -109 -110 -111 -113 -114 -115 -116 -117 -118 -119 -120 -121 -122 -123 -124 -125 0 
-79 19 22 26 30 31 39 41 45 54 60 67 71 72 73 74 78 95 122 -103 -104 -105 -106 -108 -109 -110 -111 -112 -113 -114 -115 -116 -117 -118 -119 -120 -121 -123 -124 -125 0 
-80 5 7 11 14 27 40 48 56 57 65 66 76 83 89 98 112 -103 -104 -105 -106 -108 -109 -110 -111 -113 -114 -115 -116 -117 -118 -119 -120 -121 -122 -123 -124 -125 0 
-81 -25 1 3 4 9 15 47 51 77 82 105 -103 -104 -106 -108 -109 -110 -111 -112 -113 -114 -115 -116 -117 -118 -119 -120 -121 -122 -123 -124 -125 0 
-14 5 7 11 27 40 48 56 57 65 66 76 80 83 89 98 -82 1 3 4 9 15 25 47 51 77 110 -103 -104 -105 -106 -108 -109 -111 -112 -113 -114 -115 -116 -117 -118 -119 -120 -121 -122 -123 -124 -125 0 
-83 5 7 11 14 27 40 48 56 57 65 66 76 80 89 98 103 -104 -105 -106 -108 -109 -110 -111 -112 -113 -114 -115 -116 -117 -118 -119 -120 -121 -122 -123 -124 -125 0 
-84 104 -103 -105 -106 -108 -109 -110 -111 -112 -113 -114 -115 -116 -117 -118 -119 -120 -121 -122 -123 -124 -125 0 
-85 -68 24 43 55 58 75 101 104 -103 -105 -106 -108 -109 -110 -111 -112 -113 -114 -115 -116 -117 -118 -119 -120 -121 -122 -123 -124 -125 0 
-86 52 125 -103 -104 -105 -106 -108 -109 -110 -111 -112 -113 -114 -115 -116 -117 -118 -119 -120 -121 -122 -123 -124 0 
-29 -35 102 106 -103 -104 -105 -108 -109 -110 -111 -112 -113 -114 -115 -116 -117 -118 -119 -120 -121 -122 -123 -124 -125 0 
-87 117 -103 -104 -105 -106 -108 -109 -110 -111 -112 -113 -114 -115 -116 -118 -119 -120 -121 -122 -123 -124 -125 0 
-88 -6 104 -103 -105 -106 -108 -109 -110 -111 -112 -113 -114 -115 -116 -117 -118 -119 -120 -121 -122 -123 -124 -125 0 
-89 5 7 11 14 27 40 48 56 57 65 66 76 80 83 98 104 -103 -105 -106 -108 -109 -110 -111 -112 -113 -114 -115 -116 -117 -118 -119 -120 -121 -122 -123 -124 -125 0 
-90 125 -103 -104 -105 -106 -108 -109 -110 -111 -112 -113 -114 -115 -116 -117 -118 -119 -120 -121 -122 -123 -124 0 
-91 36 110 -103 -104 -105 -106 -108 -109 -111 -112 -113 -114 -115 -116 -117 -118 -119 -120 -121 -122 -123 -124 -125 0 
-10 42 125 -103 -104 -105 -106 -108 -109 -110 -111 -112 -113 -114 -115 -116 -117 -118 -119 -120 -121 -122 -123 -124 0 
-17 -69 70 112 -103 -104 -105 -106 -108 -109 -110 -111 -113 -114 -115 -116 -117 -118 -119 -120 -121 -122 -123 -124 -125 0 
-16 -92 111 -103 -104 -105 -106 -108 -109 -110 -112 -113 -114 -115 -116 -117 -118 -119 -120 -121 -122 -123 -124 -125 0 
-93 108 -103 -104 -105 -106 -109 -110 -111 -112 -113 -114 -115 -116 -117 -118 -119 -120 -121 -122 -123 -124 -125 0 
-17 -94 -69 70 112 -103 -104 -105 -106 -108 -109 -110 -111 -113 -114 -115 -116 -117 -118 -119 -120 -121 -122 -123 -124 -125 0 
-95 19 22 26 30 31 39 41 45 54 60 67 71 72 73 74 78 79 120 -103 -104 -105 -106 -108 -109 -110 -111 -112 -113 -114 -115 -116 -117 -118 -119 -121 -122 -123 -124 -125 0 
-96 -53 122 -103 -104 -105 -106 -108 -109 -110 -111 -112 -113 -114 -115 -116 -117 -118 -119 -120 -121 -123 -124 -125 0 
-97 -98 5 7 11 14 27 40 48 56 57 65 66 76 80 83 89 120 -103 -104 -105 -106 -108 -109 -110 -111 -112 -113 -114 -115 -116 -117 -118 -119 -121 -122 -123 -124 -125 0 
-99 105 -103 -104 -106 -108 -109 -110 -111 -112 -113 -114 -115 -116 -117 -118 -119 -120 -121 -122 -123 -124 -125 0 
-100 -88 -49 34 -30 19 22 26 31 39 41 45 54 60 67 71 72 73 74 78 79 95 106 -103 -104 -105 -108 -109 -110 -111 -112 -113 -114 -115 -116 -117 -118 -119 -120 -121 -122 -123 -124 -125 0 
-101 24 43 55 58 68 75 106 -103 -104 -105 -108 -109 -110 -111 -112 -113 -114 -115 -116 -117 -118 -119 -120 -121 -122 -123 -124 -125 0 
-30 19 22 26 31 39 41 45 54 60 67 71 72 73 74 78 79 95 -29 106 -103 -104 -105 -108 -109 -110 -111 -112 -113 -114 -115 -116 -117 -118 -119 -120 -121 -122 -123 -124 -125 0 
-102 35 -1 3 4 9 15 25 47 51 77 82 121 -103 -104 -105 -106 -108 -109 -110 -111 -112 -113 -114 -115 -116 -117 -118 -119 -120 -122 -123 -124 -125 0 
